NAME /Users/henri/Research/solvers/instances/idol-instances/robust/collection/spp_dkp_Lefebvre_et_al_2026/shortest_path_10_7/uncertainty_sets/discrete_knapsack
ROWS
 N  OBJ
 L  primal_lower
COLUMNS
    MARKER    'MARKER'                 'INTORG'
    y[0,1]     OBJ        0
    y[0,1]     primal_lower -1.32
    y[0,2]     OBJ        0
    y[0,2]     primal_lower -1.08
    y[0,3]     OBJ        0
    y[0,3]     primal_lower -4.05
    y[0,4]     OBJ        0
    y[0,4]     primal_lower -3.9
    y[0,5]     OBJ        0
    y[0,5]     primal_lower -2.99
    y[0,7]     OBJ        0
    y[0,7]     primal_lower -2.48
    y[0,9]     OBJ        0
    y[0,9]     primal_lower -2.39
    y[1,0]     OBJ        0
    y[1,0]     primal_lower -0.92
    y[1,2]     OBJ        0
    y[1,2]     primal_lower -3.37
    y[1,3]     OBJ        0
    y[1,3]     primal_lower -3.92
    y[1,4]     OBJ        0
    y[1,4]     primal_lower -3.16
    y[1,6]     OBJ        0
    y[1,6]     primal_lower -2.18
    y[1,7]     OBJ        0
    y[1,7]     primal_lower -1.93
    y[1,8]     OBJ        0
    y[1,8]     primal_lower -3.51
    y[1,9]     OBJ        0
    y[1,9]     primal_lower -3.7
    y[2,0]     OBJ        0
    y[2,0]     primal_lower -1
    y[2,1]     OBJ        0
    y[2,1]     primal_lower -4.21
    y[2,3]     OBJ        0
    y[2,3]     primal_lower -0.26
    y[2,4]     OBJ        0
    y[2,4]     primal_lower -1.27
    y[2,5]     OBJ        0
    y[2,5]     primal_lower -1.37
    y[2,6]     OBJ        0
    y[2,6]     primal_lower -3.07
    y[2,7]     OBJ        0
    y[2,7]     primal_lower -3.1
    y[2,9]     OBJ        0
    y[2,9]     primal_lower -4.13
    y[3,0]     OBJ        0
    y[3,0]     primal_lower -2.65
    y[3,1]     OBJ        0
    y[3,1]     primal_lower -1.55
    y[3,2]     OBJ        0
    y[3,2]     primal_lower -1.84
    y[3,4]     OBJ        0
    y[3,4]     primal_lower -3.97
    y[3,5]     OBJ        0
    y[3,5]     primal_lower -1.1
    y[3,6]     OBJ        0
    y[3,6]     primal_lower -1.33
    y[3,7]     OBJ        0
    y[3,7]     primal_lower -0.33
    y[3,8]     OBJ        0
    y[3,8]     primal_lower -1.1
    y[3,9]     OBJ        0
    y[3,9]     primal_lower -3.98
    y[4,0]     OBJ        0
    y[4,0]     primal_lower -3.69
    y[4,1]     OBJ        0
    y[4,1]     primal_lower -2.79
    y[4,2]     OBJ        0
    y[4,2]     primal_lower -4.33
    y[4,3]     OBJ        0
    y[4,3]     primal_lower -4.11
    y[4,5]     OBJ        0
    y[4,5]     primal_lower -3.74
    y[4,7]     OBJ        0
    y[4,7]     primal_lower -4.03
    y[4,9]     OBJ        0
    y[4,9]     primal_lower -2.91
    y[5,0]     OBJ        0
    y[5,0]     primal_lower -1.72
    y[5,2]     OBJ        0
    y[5,2]     primal_lower -2.55
    y[5,3]     OBJ        0
    y[5,3]     primal_lower -1.65
    y[5,4]     OBJ        0
    y[5,4]     primal_lower -2.1
    y[5,7]     OBJ        0
    y[5,7]     primal_lower -1.58
    y[5,9]     OBJ        0
    y[5,9]     primal_lower -0.73
    y[6,1]     OBJ        0
    y[6,1]     primal_lower -3.92
    y[6,2]     OBJ        0
    y[6,2]     primal_lower -2.38
    y[6,3]     OBJ        0
    y[6,3]     primal_lower -3.6
    y[6,7]     OBJ        0
    y[6,7]     primal_lower -2.48
    y[6,8]     OBJ        0
    y[6,8]     primal_lower -0.03
    y[6,9]     OBJ        0
    y[6,9]     primal_lower -2.75
    y[7,0]     OBJ        0
    y[7,0]     primal_lower -3.36
    y[7,1]     OBJ        0
    y[7,1]     primal_lower -1.4
    y[7,2]     OBJ        0
    y[7,2]     primal_lower -0.12
    y[7,3]     OBJ        0
    y[7,3]     primal_lower -0.4
    y[7,4]     OBJ        0
    y[7,4]     primal_lower -1.12
    y[7,5]     OBJ        0
    y[7,5]     primal_lower -2.7
    y[7,6]     OBJ        0
    y[7,6]     primal_lower -3.64
    y[7,9]     OBJ        0
    y[7,9]     primal_lower -0.04
    y[8,1]     OBJ        0
    y[8,1]     primal_lower -3
    y[8,3]     OBJ        0
    y[8,3]     primal_lower -0.6
    y[8,6]     OBJ        0
    y[8,6]     primal_lower -4.06
    y[8,9]     OBJ        0
    y[8,9]     primal_lower -2.72
    y[9,0]     OBJ        0
    y[9,0]     primal_lower -4.33
    y[9,1]     OBJ        0
    y[9,1]     primal_lower -1.19
    y[9,2]     OBJ        0
    y[9,2]     primal_lower -2.6
    y[9,3]     OBJ        0
    y[9,3]     primal_lower -2.29
    y[9,4]     OBJ        0
    y[9,4]     primal_lower -3.21
    y[9,5]     OBJ        0
    y[9,5]     primal_lower -2.75
    y[9,6]     OBJ        0
    y[9,6]     primal_lower -2.63
    y[9,7]     OBJ        0
    y[9,7]     primal_lower -4.24
    y[9,8]     OBJ        0
    y[9,8]     primal_lower -2.67
    u[0,1]     OBJ        0
    u[0,1]     primal_lower 69
    u[0,2]     OBJ        0
    u[0,2]     primal_lower 2
    u[0,3]     OBJ        0
    u[0,3]     primal_lower 66
    u[0,4]     OBJ        0
    u[0,4]     primal_lower 18
    u[0,5]     OBJ        0
    u[0,5]     primal_lower 4
    u[0,7]     OBJ        0
    u[0,7]     primal_lower 68
    u[0,9]     OBJ        0
    u[0,9]     primal_lower 25
    u[1,0]     OBJ        0
    u[1,0]     primal_lower 60
    u[1,2]     OBJ        0
    u[1,2]     primal_lower 26
    u[1,3]     OBJ        0
    u[1,3]     primal_lower 9
    u[1,4]     OBJ        0
    u[1,4]     primal_lower 95
    u[1,6]     OBJ        0
    u[1,6]     primal_lower 93
    u[1,7]     OBJ        0
    u[1,7]     primal_lower 63
    u[1,8]     OBJ        0
    u[1,8]     primal_lower 57
    u[1,9]     OBJ        0
    u[1,9]     primal_lower 21
    u[2,0]     OBJ        0
    u[2,0]     primal_lower 3
    u[2,1]     OBJ        0
    u[2,1]     primal_lower 15
    u[2,3]     OBJ        0
    u[2,3]     primal_lower 26
    u[2,4]     OBJ        0
    u[2,4]     primal_lower 60
    u[2,5]     OBJ        0
    u[2,5]     primal_lower 54
    u[2,6]     OBJ        0
    u[2,6]     primal_lower 73
    u[2,7]     OBJ        0
    u[2,7]     primal_lower 27
    u[2,9]     OBJ        0
    u[2,9]     primal_lower 33
    u[3,0]     OBJ        0
    u[3,0]     primal_lower 47
    u[3,1]     OBJ        0
    u[3,1]     primal_lower 34
    u[3,2]     OBJ        0
    u[3,2]     primal_lower 87
    u[3,4]     OBJ        0
    u[3,4]     primal_lower 58
    u[3,5]     OBJ        0
    u[3,5]     primal_lower 62
    u[3,6]     OBJ        0
    u[3,6]     primal_lower 78
    u[3,7]     OBJ        0
    u[3,7]     primal_lower 51
    u[3,8]     OBJ        0
    u[3,8]     primal_lower 30
    u[3,9]     OBJ        0
    u[3,9]     primal_lower 76
    u[4,0]     OBJ        0
    u[4,0]     primal_lower 79
    u[4,1]     OBJ        0
    u[4,1]     primal_lower 34
    u[4,2]     OBJ        0
    u[4,2]     primal_lower 74
    u[4,3]     OBJ        0
    u[4,3]     primal_lower 74
    u[4,5]     OBJ        0
    u[4,5]     primal_lower 15
    u[4,7]     OBJ        0
    u[4,7]     primal_lower 46
    u[4,9]     OBJ        0
    u[4,9]     primal_lower 52
    u[5,0]     OBJ        0
    u[5,0]     primal_lower 17
    u[5,2]     OBJ        0
    u[5,2]     primal_lower 31
    u[5,3]     OBJ        0
    u[5,3]     primal_lower 85
    u[5,4]     OBJ        0
    u[5,4]     primal_lower 25
    u[5,7]     OBJ        0
    u[5,7]     primal_lower 35
    u[5,9]     OBJ        0
    u[5,9]     primal_lower 54
    u[6,1]     OBJ        0
    u[6,1]     primal_lower 24
    u[6,2]     OBJ        0
    u[6,2]     primal_lower 92
    u[6,3]     OBJ        0
    u[6,3]     primal_lower 32
    u[6,7]     OBJ        0
    u[6,7]     primal_lower 94
    u[6,8]     OBJ        0
    u[6,8]     primal_lower 25
    u[6,9]     OBJ        0
    u[6,9]     primal_lower 14
    u[7,0]     OBJ        0
    u[7,0]     primal_lower 90
    u[7,1]     OBJ        0
    u[7,1]     primal_lower 64
    u[7,2]     OBJ        0
    u[7,2]     primal_lower 24
    u[7,3]     OBJ        0
    u[7,3]     primal_lower 93
    u[7,4]     OBJ        0
    u[7,4]     primal_lower 75
    u[7,5]     OBJ        0
    u[7,5]     primal_lower 3
    u[7,6]     OBJ        0
    u[7,6]     primal_lower 38
    u[7,9]     OBJ        0
    u[7,9]     primal_lower 77
    u[8,1]     OBJ        0
    u[8,1]     primal_lower 12
    u[8,3]     OBJ        0
    u[8,3]     primal_lower 27
    u[8,6]     OBJ        0
    u[8,6]     primal_lower 65
    u[8,9]     OBJ        0
    u[8,9]     primal_lower 9
    u[9,0]     OBJ        0
    u[9,0]     primal_lower 88
    u[9,1]     OBJ        0
    u[9,1]     primal_lower 57
    u[9,2]     OBJ        0
    u[9,2]     primal_lower 52
    u[9,3]     OBJ        0
    u[9,3]     primal_lower 19
    u[9,4]     OBJ        0
    u[9,4]     primal_lower 99
    u[9,5]     OBJ        0
    u[9,5]     primal_lower 58
    u[9,6]     OBJ        0
    u[9,6]     primal_lower 87
    u[9,7]     OBJ        0
    u[9,7]     primal_lower 11
    u[9,8]     OBJ        0
    u[9,8]     primal_lower 25
    MARKER    'MARKER'                 'INTEND'
RHS
    RHS       primal_lower 315
BOUNDS
 LI BND       y[0,1]     0
 UI BND       y[0,1]     1
 LI BND       y[0,2]     0
 UI BND       y[0,2]     1
 LI BND       y[0,3]     0
 UI BND       y[0,3]     1
 LI BND       y[0,4]     0
 UI BND       y[0,4]     1
 LI BND       y[0,5]     0
 UI BND       y[0,5]     1
 LI BND       y[0,7]     0
 UI BND       y[0,7]     1
 LI BND       y[0,9]     0
 UI BND       y[0,9]     1
 LI BND       y[1,0]     0
 UI BND       y[1,0]     1
 LI BND       y[1,2]     0
 UI BND       y[1,2]     1
 LI BND       y[1,3]     0
 UI BND       y[1,3]     1
 LI BND       y[1,4]     0
 UI BND       y[1,4]     1
 LI BND       y[1,6]     0
 UI BND       y[1,6]     1
 LI BND       y[1,7]     0
 UI BND       y[1,7]     1
 LI BND       y[1,8]     0
 UI BND       y[1,8]     1
 LI BND       y[1,9]     0
 UI BND       y[1,9]     1
 LI BND       y[2,0]     0
 UI BND       y[2,0]     1
 LI BND       y[2,1]     0
 UI BND       y[2,1]     1
 LI BND       y[2,3]     0
 UI BND       y[2,3]     1
 LI BND       y[2,4]     0
 UI BND       y[2,4]     1
 LI BND       y[2,5]     0
 UI BND       y[2,5]     1
 LI BND       y[2,6]     0
 UI BND       y[2,6]     1
 LI BND       y[2,7]     0
 UI BND       y[2,7]     1
 LI BND       y[2,9]     0
 UI BND       y[2,9]     1
 LI BND       y[3,0]     0
 UI BND       y[3,0]     1
 LI BND       y[3,1]     0
 UI BND       y[3,1]     1
 LI BND       y[3,2]     0
 UI BND       y[3,2]     1
 LI BND       y[3,4]     0
 UI BND       y[3,4]     1
 LI BND       y[3,5]     0
 UI BND       y[3,5]     1
 LI BND       y[3,6]     0
 UI BND       y[3,6]     1
 LI BND       y[3,7]     0
 UI BND       y[3,7]     1
 LI BND       y[3,8]     0
 UI BND       y[3,8]     1
 LI BND       y[3,9]     0
 UI BND       y[3,9]     1
 LI BND       y[4,0]     0
 UI BND       y[4,0]     1
 LI BND       y[4,1]     0
 UI BND       y[4,1]     1
 LI BND       y[4,2]     0
 UI BND       y[4,2]     1
 LI BND       y[4,3]     0
 UI BND       y[4,3]     1
 LI BND       y[4,5]     0
 UI BND       y[4,5]     1
 LI BND       y[4,7]     0
 UI BND       y[4,7]     1
 LI BND       y[4,9]     0
 UI BND       y[4,9]     1
 LI BND       y[5,0]     0
 UI BND       y[5,0]     1
 LI BND       y[5,2]     0
 UI BND       y[5,2]     1
 LI BND       y[5,3]     0
 UI BND       y[5,3]     1
 LI BND       y[5,4]     0
 UI BND       y[5,4]     1
 LI BND       y[5,7]     0
 UI BND       y[5,7]     1
 LI BND       y[5,9]     0
 UI BND       y[5,9]     1
 LI BND       y[6,1]     0
 UI BND       y[6,1]     1
 LI BND       y[6,2]     0
 UI BND       y[6,2]     1
 LI BND       y[6,3]     0
 UI BND       y[6,3]     1
 LI BND       y[6,7]     0
 UI BND       y[6,7]     1
 LI BND       y[6,8]     0
 UI BND       y[6,8]     1
 LI BND       y[6,9]     0
 UI BND       y[6,9]     1
 LI BND       y[7,0]     0
 UI BND       y[7,0]     1
 LI BND       y[7,1]     0
 UI BND       y[7,1]     1
 LI BND       y[7,2]     0
 UI BND       y[7,2]     1
 LI BND       y[7,3]     0
 UI BND       y[7,3]     1
 LI BND       y[7,4]     0
 UI BND       y[7,4]     1
 LI BND       y[7,5]     0
 UI BND       y[7,5]     1
 LI BND       y[7,6]     0
 UI BND       y[7,6]     1
 LI BND       y[7,9]     0
 UI BND       y[7,9]     1
 LI BND       y[8,1]     0
 UI BND       y[8,1]     1
 LI BND       y[8,3]     0
 UI BND       y[8,3]     1
 LI BND       y[8,6]     0
 UI BND       y[8,6]     1
 LI BND       y[8,9]     0
 UI BND       y[8,9]     1
 LI BND       y[9,0]     0
 UI BND       y[9,0]     1
 LI BND       y[9,1]     0
 UI BND       y[9,1]     1
 LI BND       y[9,2]     0
 UI BND       y[9,2]     1
 LI BND       y[9,3]     0
 UI BND       y[9,3]     1
 LI BND       y[9,4]     0
 UI BND       y[9,4]     1
 LI BND       y[9,5]     0
 UI BND       y[9,5]     1
 LI BND       y[9,6]     0
 UI BND       y[9,6]     1
 LI BND       y[9,7]     0
 UI BND       y[9,7]     1
 LI BND       y[9,8]     0
 UI BND       y[9,8]     1
 LI BND       u[0,1]     0
 UI BND       u[0,1]     1
 LI BND       u[0,2]     0
 UI BND       u[0,2]     1
 LI BND       u[0,3]     0
 UI BND       u[0,3]     1
 LI BND       u[0,4]     0
 UI BND       u[0,4]     1
 LI BND       u[0,5]     0
 UI BND       u[0,5]     1
 LI BND       u[0,7]     0
 UI BND       u[0,7]     1
 LI BND       u[0,9]     0
 UI BND       u[0,9]     1
 LI BND       u[1,0]     0
 UI BND       u[1,0]     1
 LI BND       u[1,2]     0
 UI BND       u[1,2]     1
 LI BND       u[1,3]     0
 UI BND       u[1,3]     1
 LI BND       u[1,4]     0
 UI BND       u[1,4]     1
 LI BND       u[1,6]     0
 UI BND       u[1,6]     1
 LI BND       u[1,7]     0
 UI BND       u[1,7]     1
 LI BND       u[1,8]     0
 UI BND       u[1,8]     1
 LI BND       u[1,9]     0
 UI BND       u[1,9]     1
 LI BND       u[2,0]     0
 UI BND       u[2,0]     1
 LI BND       u[2,1]     0
 UI BND       u[2,1]     1
 LI BND       u[2,3]     0
 UI BND       u[2,3]     1
 LI BND       u[2,4]     0
 UI BND       u[2,4]     1
 LI BND       u[2,5]     0
 UI BND       u[2,5]     1
 LI BND       u[2,6]     0
 UI BND       u[2,6]     1
 LI BND       u[2,7]     0
 UI BND       u[2,7]     1
 LI BND       u[2,9]     0
 UI BND       u[2,9]     1
 LI BND       u[3,0]     0
 UI BND       u[3,0]     1
 LI BND       u[3,1]     0
 UI BND       u[3,1]     1
 LI BND       u[3,2]     0
 UI BND       u[3,2]     1
 LI BND       u[3,4]     0
 UI BND       u[3,4]     1
 LI BND       u[3,5]     0
 UI BND       u[3,5]     1
 LI BND       u[3,6]     0
 UI BND       u[3,6]     1
 LI BND       u[3,7]     0
 UI BND       u[3,7]     1
 LI BND       u[3,8]     0
 UI BND       u[3,8]     1
 LI BND       u[3,9]     0
 UI BND       u[3,9]     1
 LI BND       u[4,0]     0
 UI BND       u[4,0]     1
 LI BND       u[4,1]     0
 UI BND       u[4,1]     1
 LI BND       u[4,2]     0
 UI BND       u[4,2]     1
 LI BND       u[4,3]     0
 UI BND       u[4,3]     1
 LI BND       u[4,5]     0
 UI BND       u[4,5]     1
 LI BND       u[4,7]     0
 UI BND       u[4,7]     1
 LI BND       u[4,9]     0
 UI BND       u[4,9]     1
 LI BND       u[5,0]     0
 UI BND       u[5,0]     1
 LI BND       u[5,2]     0
 UI BND       u[5,2]     1
 LI BND       u[5,3]     0
 UI BND       u[5,3]     1
 LI BND       u[5,4]     0
 UI BND       u[5,4]     1
 LI BND       u[5,7]     0
 UI BND       u[5,7]     1
 LI BND       u[5,9]     0
 UI BND       u[5,9]     1
 LI BND       u[6,1]     0
 UI BND       u[6,1]     1
 LI BND       u[6,2]     0
 UI BND       u[6,2]     1
 LI BND       u[6,3]     0
 UI BND       u[6,3]     1
 LI BND       u[6,7]     0
 UI BND       u[6,7]     1
 LI BND       u[6,8]     0
 UI BND       u[6,8]     1
 LI BND       u[6,9]     0
 UI BND       u[6,9]     1
 LI BND       u[7,0]     0
 UI BND       u[7,0]     1
 LI BND       u[7,1]     0
 UI BND       u[7,1]     1
 LI BND       u[7,2]     0
 UI BND       u[7,2]     1
 LI BND       u[7,3]     0
 UI BND       u[7,3]     1
 LI BND       u[7,4]     0
 UI BND       u[7,4]     1
 LI BND       u[7,5]     0
 UI BND       u[7,5]     1
 LI BND       u[7,6]     0
 UI BND       u[7,6]     1
 LI BND       u[7,9]     0
 UI BND       u[7,9]     1
 LI BND       u[8,1]     0
 UI BND       u[8,1]     1
 LI BND       u[8,3]     0
 UI BND       u[8,3]     1
 LI BND       u[8,6]     0
 UI BND       u[8,6]     1
 LI BND       u[8,9]     0
 UI BND       u[8,9]     1
 LI BND       u[9,0]     0
 UI BND       u[9,0]     1
 LI BND       u[9,1]     0
 UI BND       u[9,1]     1
 LI BND       u[9,2]     0
 UI BND       u[9,2]     1
 LI BND       u[9,3]     0
 UI BND       u[9,3]     1
 LI BND       u[9,4]     0
 UI BND       u[9,4]     1
 LI BND       u[9,5]     0
 UI BND       u[9,5]     1
 LI BND       u[9,6]     0
 UI BND       u[9,6]     1
 LI BND       u[9,7]     0
 UI BND       u[9,7]     1
 LI BND       u[9,8]     0
 UI BND       u[9,8]     1
ENDATA
